SCIP version 5.0.0 [precision: 8 byte] [memory: block] [mode: optimized] [LP solver: NONE] [GitHash: 3bbd232]
Copyright (C) 2002-2017 Konrad-Zuse-Zentrum fuer Informationstechnik Berlin (ZIB)

External codes: 
  Readline EditLine w  GNU library for command line editing (gnu.org/s/readline)
  CppAD 20160000.1     Algorithmic Differentiation of C++ algorithms developed by B. Bell (www.coin-or.org/CppAD)
  ZLIB 1.2.5           General purpose compression library by J. Gailly and M. Adler (zlib.net)
  GMP 6.1.2            GNU Multiple Precision Arithmetic Library developed by T. Granlund (gmplib.org)

user parameter file <scip.set> not found - using default parameters

read problem <../../Split_data/output/seismic-bumps/4/4_sample_seismic-bumps.logreg>
============

File name	:	../../Split_data/output/seismic-bumps/4/4_sample_seismic-bumps.logreg
Problem name 	:	4_sample_seismic-bumps
Number of data	:	2067
Number of var	:	21
The given data has linear dependence
4 sets of column vector are linearly dependent:
{ 2 3}, { 4 5 6}, { 7 8}, { 13 14 15}, 

[dim=1] time: 0.033607
[dim=2] time: 0.070852
[dim=3] time: 0.104102
[dim=4] time: 0.144187
[dim=5] time: 0.184278
[dim=6] time: 0.21267
[dim=7] time: 0.240531
[dim=8] time: 0.276735
[dim=9] Time of forward = 0.293711sec.
AIC: 892.132
k: 8

[dim=17] time: 0.077853
[dim=16] time: 0.112428
[dim=15] time: 0.143174
[dim=14] time: 0.171127
[dim=13] time: 0.191809
[dim=12] time: 0.206248
[dim=11] Time of backward = 0.226242sec.
AIC: 893.595
k: 12
